(set-info :smt-lib-version 2.6)
(set-logic QF_BV)
(set-info :source grep.model)
(set-info :category "industrial")
(set-info :status sat)
(declare-const P0 (_ BitVec 2))
(assert (bvult P0 (_ bv3 2)))
(declare-const P1 (_ BitVec 2))
(assert (bvult P1 (_ bv3 2)))
(declare-const P2 (_ BitVec 2))
(declare-const P3 (_ BitVec 3))
(assert (bvult P3 (_ bv6 3)))
(declare-const P4 (_ BitVec 3))
(declare-const P5 (_ BitVec 2))
(declare-const P6 (_ BitVec 2))
(assert (bvult P6 (_ bv3 2)))
(declare-const P7 Bool)
(declare-const P8 (_ BitVec 3))
(assert (bvult P8 (_ bv5 3)))
(assert (or (not (= P2 (_ bv0 2))) (= P1 (_ bv0 2))))
(assert (or (not (= P2 (_ bv0 2))) (= P0 (_ bv0 2)) (= P0 (_ bv2 2))))
(assert (or (not (= P2 (_ bv1 2))) (= P1 (_ bv1 2))))
(assert (or (not (= P2 (_ bv1 2))) (= P0 (_ bv0 2)) (= P0 (_ bv2 2))))
(assert (or (not (= P2 (_ bv2 2))) (= P1 (_ bv0 2))))
(assert (or (not (= P2 (_ bv2 2))) (= P0 (_ bv0 2)) (= P0 (_ bv2 2))))
(assert (or (not (= P3 (_ bv0 3))) (= P1 (_ bv0 2))))
(assert (or (not (= P3 (_ bv0 3))) (= P2 (_ bv3 2))))
(assert (or (not (= P3 (_ bv0 3))) (= P0 (_ bv0 2)) (= P0 (_ bv2 2))))
(assert (or (not (= P3 (_ bv1 3))) (= P1 (_ bv1 2))))
(assert (or (not (= P3 (_ bv1 3))) (= P2 (_ bv3 2))))
(assert (or (not (= P3 (_ bv1 3))) (= P0 (_ bv0 2)) (= P0 (_ bv2 2))))
(assert (or (not (= P3 (_ bv2 3))) (= P1 (_ bv1 2))))
(assert (or (not (= P3 (_ bv2 3))) (= P2 (_ bv3 2))))
(assert (or (not (= P3 (_ bv2 3))) (= P0 (_ bv0 2)) (= P0 (_ bv2 2))))
(assert (or (not (= P3 (_ bv3 3))) (= P1 (_ bv1 2))))
(assert (or (not (= P3 (_ bv3 3))) (= P2 (_ bv3 2))))
(assert (or (not (= P3 (_ bv3 3))) (= P0 (_ bv0 2)) (= P0 (_ bv2 2))))
(assert (or (not (= P3 (_ bv4 3))) (= P1 (_ bv0 2))))
(assert (or (not (= P4 (_ bv0 3))) (= P0 (_ bv0 2))))
(assert (or (not (= P4 (_ bv0 3))) (= P1 (_ bv0 2)) (= P1 (_ bv1 2))))
(assert (or (not (= P4 (_ bv0 3))) (= P2 (_ bv3 2))))
(assert (or (not (= P4 (_ bv1 3))) (= P0 (_ bv2 2))))
(assert (or (not (= P4 (_ bv1 3))) (= P1 (_ bv0 2)) (= P1 (_ bv1 2))))
(assert (or (not (= P4 (_ bv1 3))) (= P2 (_ bv3 2))))
(assert (or (not (= P4 (_ bv2 3))) (= P0 (_ bv0 2))))
(assert (or (not (= P4 (_ bv2 3))) (= P1 (_ bv0 2)) (= P1 (_ bv1 2))))
(assert (or (not (= P4 (_ bv2 3))) (= P2 (_ bv3 2))))
(assert (or (not (= P4 (_ bv3 3))) (= P0 (_ bv2 2))))
(assert (or (not (= P4 (_ bv3 3))) (= P1 (_ bv0 2)) (= P1 (_ bv1 2))))
(assert (or (not (= P4 (_ bv3 3))) (= P2 (_ bv3 2))))
(assert (or (not (= P4 (_ bv4 3))) (= P0 (_ bv0 2))))
(assert (or (not (= P4 (_ bv4 3))) (= P1 (_ bv0 2)) (= P1 (_ bv1 2))))
(assert (or (not (= P4 (_ bv4 3))) (= P2 (_ bv3 2))))
(assert (or (not (= P4 (_ bv5 3))) (= P0 (_ bv2 2))))
(assert (or (not (= P4 (_ bv5 3))) (= P1 (_ bv0 2)) (= P1 (_ bv1 2))))
(assert (or (not (= P4 (_ bv5 3))) (= P2 (_ bv3 2))))
(assert (or (not (= P4 (_ bv6 3))) (= P1 (_ bv0 2))))
(assert (or (not (= P5 (_ bv0 2))) (= P0 (_ bv0 2))))
(assert (or (not (= P5 (_ bv0 2))) (= P4 (_ bv0 3)) (= P4 (_ bv1 3)) (= P4 (_ bv2 3)) (= P4 (_ bv3 3)) (= P4 (_ bv4 3)) (= P4 (_ bv5 3))))
(assert (or (not (= P5 (_ bv1 2))) (= P0 (_ bv2 2))))
(assert (or (not (= P5 (_ bv1 2))) (= P4 (_ bv0 3)) (= P4 (_ bv1 3)) (= P4 (_ bv2 3)) (= P4 (_ bv3 3)) (= P4 (_ bv4 3)) (= P4 (_ bv5 3))))
(assert (or (not (= P5 (_ bv2 2))) (= P4 (_ bv0 3)) (= P4 (_ bv1 3)) (= P4 (_ bv2 3)) (= P4 (_ bv3 3)) (= P4 (_ bv4 3)) (= P4 (_ bv5 3))))
(assert (or (not (= P6 (_ bv0 2))) (= P0 (_ bv0 2))))
(assert (or (not (= P6 (_ bv0 2))) (= P1 (_ bv0 2)) (= P1 (_ bv1 2))))
(assert (or (not (= P6 (_ bv1 2))) (= P0 (_ bv2 2))))
(assert (or (not (= P6 (_ bv1 2))) (= P1 (_ bv0 2)) (= P1 (_ bv1 2))))
(assert (or (not (= P7 false)) (= P0 (_ bv0 2)) (= P0 (_ bv2 2))))
(assert (or (not (= P7 false)) (= P1 (_ bv0 2)) (= P1 (_ bv1 2))))
(assert (or (not (= P8 (_ bv0 3))) (= P7 false)))
(assert (or (not (= P8 (_ bv0 3))) (= P4 (_ bv0 3)) (= P4 (_ bv1 3)) (= P4 (_ bv2 3)) (= P4 (_ bv3 3)) (= P4 (_ bv4 3)) (= P4 (_ bv5 3))))
(assert (or (not (= P8 (_ bv1 3))) (= P6 (_ bv0 2)) (= P6 (_ bv1 2))))
(assert (or (not (= P8 (_ bv1 3))) (= P7 false)))
(assert (or (not (= P8 (_ bv2 3))) (= P0 (_ bv0 2))))
(assert (or (not (= P8 (_ bv2 3))) (= P7 false)))
(assert (or (not (= P8 (_ bv2 3))) (= P4 (_ bv0 3)) (= P4 (_ bv1 3)) (= P4 (_ bv2 3)) (= P4 (_ bv3 3)) (= P4 (_ bv4 3)) (= P4 (_ bv5 3))))
(assert (or (not (= P8 (_ bv3 3))) (= P0 (_ bv2 2))))
(assert (or (not (= P8 (_ bv3 3))) (= P6 (_ bv0 2)) (= P6 (_ bv1 2))))
(assert (or (not (= P8 (_ bv3 3))) (= P7 false)))
(assert (or (not (= P3 (_ bv5 3))) (not (= P1 (_ bv0 2)))))
(assert (or (not (= P3 (_ bv5 3))) (not (= P2 (_ bv3 2))) (not (= P0 (_ bv0 2))) (not (= P1 (_ bv1 2)))))
(assert (or (not (= P3 (_ bv5 3))) (not (= P2 (_ bv3 2))) (not (= P0 (_ bv2 2))) (not (= P1 (_ bv1 2)))))
(assert (or (not (= P3 (_ bv5 3))) (not (= P2 (_ bv3 2))) (not (= P0 (_ bv0 2))) (not (= P1 (_ bv2 2)))))
(assert (or (not (= P3 (_ bv5 3))) (not (= P2 (_ bv3 2))) (not (= P0 (_ bv2 2))) (not (= P1 (_ bv2 2)))))
(assert (or (not (= P4 (_ bv7 3))) (not (= P1 (_ bv0 2)))))
(assert (or (not (= P4 (_ bv7 3))) (not (= P2 (_ bv3 2))) (not (= P0 (_ bv0 2))) (not (= P1 (_ bv1 2)))))
(assert (or (not (= P4 (_ bv7 3))) (not (= P2 (_ bv3 2))) (not (= P0 (_ bv2 2))) (not (= P1 (_ bv1 2)))))
(assert (or (not (= P4 (_ bv7 3))) (not (= P2 (_ bv3 2))) (not (= P0 (_ bv0 2))) (not (= P1 (_ bv2 2)))))
(assert (or (not (= P4 (_ bv7 3))) (not (= P2 (_ bv3 2))) (not (= P0 (_ bv2 2))) (not (= P1 (_ bv2 2)))))
(assert (or (not (= P5 (_ bv3 2))) (not (= P4 (_ bv0 3)))))
(assert (or (not (= P5 (_ bv3 2))) (not (= P4 (_ bv1 3)))))
(assert (or (not (= P5 (_ bv3 2))) (not (= P4 (_ bv2 3)))))
(assert (or (not (= P5 (_ bv3 2))) (not (= P4 (_ bv3 3)))))
(assert (or (not (= P5 (_ bv3 2))) (not (= P4 (_ bv4 3)))))
(assert (or (not (= P5 (_ bv3 2))) (not (= P4 (_ bv5 3)))))
(assert (or (not (= P8 (_ bv4 3))) (not (= P4 (_ bv0 3))) (not (= P7 false))))
(assert (or (not (= P8 (_ bv4 3))) (not (= P4 (_ bv1 3))) (not (= P7 false))))
(assert (or (not (= P8 (_ bv4 3))) (not (= P4 (_ bv2 3))) (not (= P7 false))))
(assert (or (not (= P8 (_ bv4 3))) (not (= P4 (_ bv3 3))) (not (= P7 false))))
(assert (or (not (= P8 (_ bv4 3))) (not (= P4 (_ bv4 3))) (not (= P7 false))))
(assert (or (not (= P8 (_ bv4 3))) (not (= P4 (_ bv5 3))) (not (= P7 false))))
(assert (or (not (= P8 (_ bv4 3))) (not (= P6 (_ bv0 2))) (not (= P7 false))))
(assert (or (not (= P8 (_ bv4 3))) (not (= P6 (_ bv1 2))) (not (= P7 false))))
(check-sat)
(exit)
